100 100 100
50
50 83 93
42 80 66
73 1 98
67 97 49
34 88 91
88 91 23
94 100 92
29 87 91
4 86 74
30 46 37
80 92 23
72 12 83
25 92 77
70 49 78
24 89 83
88 73 24
92 79 37
25 81 84
89 60 69
20 78 91
81 75 23
76 54 90
20 98 91
50 47 22
6 80 74
41 77 93
72 72 27
87 15 89
24 69 91
18 94 85
91 93 92
19 76 73
46 84 77
89 65 52
73 77 97
15 43 33
100 99 56
18 67 81
79 50 56
50 83 79
3 82 69
17 78 99
19 79 81
32 74 73
95 3 69
97 82 61
39 83 74
40 87 71
91 88 10
89 2 84
